unsat
(:max-memory         18.05
 :memory             17.96
 :nlsat-conflicts    3
 :nlsat-propagations 15
 :nlsat-stages       4
 :num-allocs         27654
 :rlimit-count       2231
 :time               0.00
 :total-time         0.01)
